<instance format="XCSP3" type="COP">
  <variables>
    <array id="x" size="[95]"> 0..94 </array>
  </variables>
  <constraints>
    <group>
      <intension> ne(%0,%1) </intension>
      <args> x[0] x[1] </args>
      <args> x[0] x[3] </args>
      <args> x[0] x[6] </args>
      <args> x[0] x[8] </args>
      <args> x[0] x[12] </args>
      <args> x[0] x[14] </args>
      <args> x[0] x[17] </args>
      <args> x[0] x[19] </args>
      <args> x[0] x[24] </args>
      <args> x[0] x[26] </args>
      <args> x[0] x[29] </args>
      <args> x[0] x[31] </args>
      <args> x[0] x[35] </args>
      <args> x[0] x[37] </args>
      <args> x[0] x[40] </args>
      <args> x[0] x[42] </args>
      <args> x[0] x[48] </args>
      <args> x[0] x[50] </args>
      <args> x[0] x[53] </args>
      <args> x[0] x[55] </args>
      <args> x[0] x[59] </args>
      <args> x[0] x[61] </args>
      <args> x[0] x[64] </args>
      <args> x[0] x[66] </args>
      <args> x[0] x[71] </args>
      <args> x[0] x[73] </args>
      <args> x[0] x[76] </args>
      <args> x[0] x[78] </args>
      <args> x[0] x[82] </args>
      <args> x[0] x[84] </args>
      <args> x[0] x[87] </args>
      <args> x[0] x[89] </args>
      <args> x[1] x[2] </args>
      <args> x[1] x[5] </args>
      <args> x[1] x[7] </args>
      <args> x[1] x[11] </args>
      <args> x[1] x[13] </args>
      <args> x[1] x[16] </args>
      <args> x[1] x[18] </args>
      <args> x[1] x[23] </args>
      <args> x[1] x[25] </args>
      <args> x[1] x[28] </args>
      <args> x[1] x[30] </args>
      <args> x[1] x[34] </args>
      <args> x[1] x[36] </args>
      <args> x[1] x[39] </args>
      <args> x[1] x[41] </args>
      <args> x[1] x[47] </args>
      <args> x[1] x[49] </args>
      <args> x[1] x[52] </args>
      <args> x[1] x[54] </args>
      <args> x[1] x[58] </args>
      <args> x[1] x[60] </args>
      <args> x[1] x[63] </args>
      <args> x[1] x[65] </args>
      <args> x[1] x[70] </args>
      <args> x[1] x[72] </args>
      <args> x[1] x[75] </args>
      <args> x[1] x[77] </args>
      <args> x[1] x[81] </args>
      <args> x[1] x[83] </args>
      <args> x[1] x[86] </args>
      <args> x[1] x[88] </args>
      <args> x[2] x[4] </args>
      <args> x[2] x[6] </args>
      <args> x[2] x[9] </args>
      <args> x[2] x[12] </args>
      <args> x[2] x[15] </args>
      <args> x[2] x[17] </args>
      <args> x[2] x[20] </args>
      <args> x[2] x[24] </args>
      <args> x[2] x[27] </args>
      <args> x[2] x[29] </args>
      <args> x[2] x[32] </args>
      <args> x[2] x[35] </args>
      <args> x[2] x[38] </args>
      <args> x[2] x[40] </args>
      <args> x[2] x[43] </args>
      <args> x[2] x[48] </args>
      <args> x[2] x[51] </args>
      <args> x[2] x[53] </args>
      <args> x[2] x[56] </args>
      <args> x[2] x[59] </args>
      <args> x[2] x[62] </args>
      <args> x[2] x[64] </args>
      <args> x[2] x[67] </args>
      <args> x[2] x[71] </args>
      <args> x[2] x[74] </args>
      <args> x[2] x[76] </args>
      <args> x[2] x[79] </args>
      <args> x[2] x[82] </args>
      <args> x[2] x[85] </args>
      <args> x[2] x[87] </args>
      <args> x[2] x[90] </args>
      <args> x[3] x[4] </args>
      <args> x[3] x[5] </args>
      <args> x[3] x[9] </args>
      <args> x[3] x[11] </args>
      <args> x[3] x[15] </args>
      <args> x[3] x[16] </args>
      <args> x[3] x[20] </args>
      <args> x[3] x[23] </args>
      <args> x[3] x[27] </args>
      <args> x[3] x[28] </args>
      <args> x[3] x[32] </args>
      <args> x[3] x[34] </args>
      <args> x[3] x[38] </args>
      <args> x[3] x[39] </args>
      <args> x[3] x[43] </args>
      <args> x[3] x[47] </args>
      <args> x[3] x[51] </args>
      <args> x[3] x[52] </args>
      <args> x[3] x[56] </args>
      <args> x[3] x[58] </args>
      <args> x[3] x[62] </args>
      <args> x[3] x[63] </args>
      <args> x[3] x[67] </args>
      <args> x[3] x[70] </args>
      <args> x[3] x[74] </args>
      <args> x[3] x[75] </args>
      <args> x[3] x[79] </args>
      <args> x[3] x[81] </args>
      <args> x[3] x[85] </args>
      <args> x[3] x[86] </args>
      <args> x[3] x[90] </args>
      <args> x[4] x[7] </args>
      <args> x[4] x[8] </args>
      <args> x[4] x[13] </args>
      <args> x[4] x[14] </args>
      <args> x[4] x[18] </args>
      <args> x[4] x[19] </args>
      <args> x[4] x[25] </args>
      <args> x[4] x[26] </args>
      <args> x[4] x[30] </args>
      <args> x[4] x[31] </args>
      <args> x[4] x[36] </args>
      <args> x[4] x[37] </args>
      <args> x[4] x[41] </args>
      <args> x[4] x[42] </args>
      <args> x[4] x[49] </args>
      <args> x[4] x[50] </args>
      <args> x[4] x[54] </args>
      <args> x[4] x[55] </args>
      <args> x[4] x[60] </args>
      <args> x[4] x[61] </args>
      <args> x[4] x[65] </args>
      <args> x[4] x[66] </args>
      <args> x[4] x[72] </args>
      <args> x[4] x[73] </args>
      <args> x[4] x[77] </args>
      <args> x[4] x[78] </args>
      <args> x[4] x[83] </args>
      <args> x[4] x[84] </args>
      <args> x[4] x[88] </args>
      <args> x[4] x[89] </args>
      <args> x[5] x[10] </args>
      <args> x[5] x[12] </args>
      <args> x[5] x[14] </args>
      <args> x[5] x[21] </args>
      <args> x[5] x[24] </args>
      <args> x[5] x[26] </args>
      <args> x[5] x[33] </args>
      <args> x[5] x[35] </args>
      <args> x[5] x[37] </args>
      <args> x[5] x[44] </args>
      <args> x[5] x[48] </args>
      <args> x[5] x[50] </args>
      <args> x[5] x[57] </args>
      <args> x[5] x[59] </args>
      <args> x[5] x[61] </args>
      <args> x[5] x[68] </args>
      <args> x[5] x[71] </args>
      <args> x[5] x[73] </args>
      <args> x[5] x[80] </args>
      <args> x[5] x[82] </args>
      <args> x[5] x[84] </args>
      <args> x[5] x[91] </args>
      <args> x[6] x[10] </args>
      <args> x[6] x[11] </args>
      <args> x[6] x[13] </args>
      <args> x[6] x[21] </args>
      <args> x[6] x[23] </args>
      <args> x[6] x[25] </args>
      <args> x[6] x[33] </args>
      <args> x[6] x[34] </args>
      <args> x[6] x[36] </args>
      <args> x[6] x[44] </args>
      <args> x[6] x[47] </args>
      <args> x[6] x[49] </args>
      <args> x[6] x[57] </args>
      <args> x[6] x[58] </args>
      <args> x[6] x[60] </args>
      <args> x[6] x[68] </args>
      <args> x[6] x[70] </args>
      <args> x[6] x[72] </args>
      <args> x[6] x[80] </args>
      <args> x[6] x[81] </args>
      <args> x[6] x[83] </args>
      <args> x[6] x[91] </args>
      <args> x[7] x[10] </args>
      <args> x[7] x[12] </args>
      <args> x[7] x[15] </args>
      <args> x[7] x[21] </args>
      <args> x[7] x[24] </args>
      <args> x[7] x[27] </args>
      <args> x[7] x[33] </args>
      <args> x[7] x[35] </args>
      <args> x[7] x[38] </args>
      <args> x[7] x[44] </args>
      <args> x[7] x[48] </args>
      <args> x[7] x[51] </args>
      <args> x[7] x[57] </args>
      <args> x[7] x[59] </args>
      <args> x[7] x[62] </args>
      <args> x[7] x[68] </args>
      <args> x[7] x[71] </args>
      <args> x[7] x[74] </args>
      <args> x[7] x[80] </args>
      <args> x[7] x[82] </args>
      <args> x[7] x[85] </args>
      <args> x[7] x[91] </args>
      <args> x[8] x[10] </args>
      <args> x[8] x[11] </args>
      <args> x[8] x[15] </args>
      <args> x[8] x[21] </args>
      <args> x[8] x[23] </args>
      <args> x[8] x[27] </args>
      <args> x[8] x[33] </args>
      <args> x[8] x[34] </args>
      <args> x[8] x[38] </args>
      <args> x[8] x[44] </args>
      <args> x[8] x[47] </args>
      <args> x[8] x[51] </args>
      <args> x[8] x[57] </args>
      <args> x[8] x[58] </args>
      <args> x[8] x[62] </args>
      <args> x[8] x[68] </args>
      <args> x[8] x[70] </args>
      <args> x[8] x[74] </args>
      <args> x[8] x[80] </args>
      <args> x[8] x[81] </args>
      <args> x[8] x[85] </args>
      <args> x[8] x[91] </args>
      <args> x[9] x[10] </args>
      <args> x[9] x[13] </args>
      <args> x[9] x[14] </args>
      <args> x[9] x[21] </args>
      <args> x[9] x[25] </args>
      <args> x[9] x[26] </args>
      <args> x[9] x[33] </args>
      <args> x[9] x[36] </args>
      <args> x[9] x[37] </args>
      <args> x[9] x[44] </args>
      <args> x[9] x[49] </args>
      <args> x[9] x[50] </args>
      <args> x[9] x[57] </args>
      <args> x[9] x[60] </args>
      <args> x[9] x[61] </args>
      <args> x[9] x[68] </args>
      <args> x[9] x[72] </args>
      <args> x[9] x[73] </args>
      <args> x[9] x[80] </args>
      <args> x[9] x[83] </args>
      <args> x[9] x[84] </args>
      <args> x[9] x[91] </args>
      <args> x[10] x[16] </args>
      <args> x[10] x[17] </args>
      <args> x[10] x[18] </args>
      <args> x[10] x[19] </args>
      <args> x[10] x[20] </args>
      <args> x[10] x[28] </args>
      <args> x[10] x[29] </args>
      <args> x[10] x[30] </args>
      <args> x[10] x[31] </args>
      <args> x[10] x[32] </args>
      <args> x[10] x[39] </args>
      <args> x[10] x[40] </args>
      <args> x[10] x[41] </args>
      <args> x[10] x[42] </args>
      <args> x[10] x[43] </args>
      <args> x[10] x[52] </args>
      <args> x[10] x[53] </args>
      <args> x[10] x[54] </args>
      <args> x[10] x[55] </args>
      <args> x[10] x[56] </args>
      <args> x[10] x[63] </args>
      <args> x[10] x[64] </args>
      <args> x[10] x[65] </args>
      <args> x[10] x[66] </args>
      <args> x[10] x[67] </args>
      <args> x[10] x[75] </args>
      <args> x[10] x[76] </args>
      <args> x[10] x[77] </args>
      <args> x[10] x[78] </args>
      <args> x[10] x[79] </args>
      <args> x[10] x[86] </args>
      <args> x[10] x[87] </args>
      <args> x[10] x[88] </args>
      <args> x[10] x[89] </args>
      <args> x[10] x[90] </args>
      <args> x[11] x[22] </args>
      <args> x[11] x[24] </args>
      <args> x[11] x[26] </args>
      <args> x[11] x[29] </args>
      <args> x[11] x[31] </args>
      <args> x[11] x[45] </args>
      <args> x[11] x[48] </args>
      <args> x[11] x[50] </args>
      <args> x[11] x[53] </args>
      <args> x[11] x[55] </args>
      <args> x[11] x[69] </args>
      <args> x[11] x[71] </args>
      <args> x[11] x[73] </args>
      <args> x[11] x[76] </args>
      <args> x[11] x[78] </args>
      <args> x[11] x[92] </args>
      <args> x[12] x[22] </args>
      <args> x[12] x[23] </args>
      <args> x[12] x[25] </args>
      <args> x[12] x[28] </args>
      <args> x[12] x[30] </args>
      <args> x[12] x[45] </args>
      <args> x[12] x[47] </args>
      <args> x[12] x[49] </args>
      <args> x[12] x[52] </args>
      <args> x[12] x[54] </args>
      <args> x[12] x[69] </args>
      <args> x[12] x[70] </args>
      <args> x[12] x[72] </args>
      <args> x[12] x[75] </args>
      <args> x[12] x[77] </args>
      <args> x[12] x[92] </args>
      <args> x[13] x[22] </args>
      <args> x[13] x[24] </args>
      <args> x[13] x[27] </args>
      <args> x[13] x[29] </args>
      <args> x[13] x[32] </args>
      <args> x[13] x[45] </args>
      <args> x[13] x[48] </args>
      <args> x[13] x[51] </args>
      <args> x[13] x[53] </args>
      <args> x[13] x[56] </args>
      <args> x[13] x[69] </args>
      <args> x[13] x[71] </args>
      <args> x[13] x[74] </args>
      <args> x[13] x[76] </args>
      <args> x[13] x[79] </args>
      <args> x[13] x[92] </args>
      <args> x[14] x[22] </args>
      <args> x[14] x[23] </args>
      <args> x[14] x[27] </args>
      <args> x[14] x[28] </args>
      <args> x[14] x[32] </args>
      <args> x[14] x[45] </args>
      <args> x[14] x[47] </args>
      <args> x[14] x[51] </args>
      <args> x[14] x[52] </args>
      <args> x[14] x[56] </args>
      <args> x[14] x[69] </args>
      <args> x[14] x[70] </args>
      <args> x[14] x[74] </args>
      <args> x[14] x[75] </args>
      <args> x[14] x[79] </args>
      <args> x[14] x[92] </args>
      <args> x[15] x[22] </args>
      <args> x[15] x[25] </args>
      <args> x[15] x[26] </args>
      <args> x[15] x[30] </args>
      <args> x[15] x[31] </args>
      <args> x[15] x[45] </args>
      <args> x[15] x[49] </args>
      <args> x[15] x[50] </args>
      <args> x[15] x[54] </args>
      <args> x[15] x[55] </args>
      <args> x[15] x[69] </args>
      <args> x[15] x[72] </args>
      <args> x[15] x[73] </args>
      <args> x[15] x[77] </args>
      <args> x[15] x[78] </args>
      <args> x[15] x[92] </args>
      <args> x[16] x[22] </args>
      <args> x[16] x[24] </args>
      <args> x[16] x[26] </args>
      <args> x[16] x[33] </args>
      <args> x[16] x[45] </args>
      <args> x[16] x[48] </args>
      <args> x[16] x[50] </args>
      <args> x[16] x[57] </args>
      <args> x[16] x[69] </args>
      <args> x[16] x[71] </args>
      <args> x[16] x[73] </args>
      <args> x[16] x[80] </args>
      <args> x[16] x[92] </args>
      <args> x[17] x[22] </args>
      <args> x[17] x[23] </args>
      <args> x[17] x[25] </args>
      <args> x[17] x[33] </args>
      <args> x[17] x[45] </args>
      <args> x[17] x[47] </args>
      <args> x[17] x[49] </args>
      <args> x[17] x[57] </args>
      <args> x[17] x[69] </args>
      <args> x[17] x[70] </args>
      <args> x[17] x[72] </args>
      <args> x[17] x[80] </args>
      <args> x[17] x[92] </args>
      <args> x[18] x[22] </args>
      <args> x[18] x[24] </args>
      <args> x[18] x[27] </args>
      <args> x[18] x[33] </args>
      <args> x[18] x[45] </args>
      <args> x[18] x[48] </args>
      <args> x[18] x[51] </args>
      <args> x[18] x[57] </args>
      <args> x[18] x[69] </args>
      <args> x[18] x[71] </args>
      <args> x[18] x[74] </args>
      <args> x[18] x[80] </args>
      <args> x[18] x[92] </args>
      <args> x[19] x[22] </args>
      <args> x[19] x[23] </args>
      <args> x[19] x[27] </args>
      <args> x[19] x[33] </args>
      <args> x[19] x[45] </args>
      <args> x[19] x[47] </args>
      <args> x[19] x[51] </args>
      <args> x[19] x[57] </args>
      <args> x[19] x[69] </args>
      <args> x[19] x[70] </args>
      <args> x[19] x[74] </args>
      <args> x[19] x[80] </args>
      <args> x[19] x[92] </args>
      <args> x[20] x[22] </args>
      <args> x[20] x[25] </args>
      <args> x[20] x[26] </args>
      <args> x[20] x[33] </args>
      <args> x[20] x[45] </args>
      <args> x[20] x[49] </args>
      <args> x[20] x[50] </args>
      <args> x[20] x[57] </args>
      <args> x[20] x[69] </args>
      <args> x[20] x[72] </args>
      <args> x[20] x[73] </args>
      <args> x[20] x[80] </args>
      <args> x[20] x[92] </args>
      <args> x[21] x[22] </args>
      <args> x[21] x[28] </args>
      <args> x[21] x[29] </args>
      <args> x[21] x[30] </args>
      <args> x[21] x[31] </args>
      <args> x[21] x[32] </args>
      <args> x[21] x[45] </args>
      <args> x[21] x[52] </args>
      <args> x[21] x[53] </args>
      <args> x[21] x[54] </args>
      <args> x[21] x[55] </args>
      <args> x[21] x[56] </args>
      <args> x[21] x[69] </args>
      <args> x[21] x[75] </args>
      <args> x[21] x[76] </args>
      <args> x[21] x[77] </args>
      <args> x[21] x[78] </args>
      <args> x[21] x[79] </args>
      <args> x[21] x[92] </args>
      <args> x[22] x[34] </args>
      <args> x[22] x[35] </args>
      <args> x[22] x[36] </args>
      <args> x[22] x[37] </args>
      <args> x[22] x[38] </args>
      <args> x[22] x[39] </args>
      <args> x[22] x[40] </args>
      <args> x[22] x[41] </args>
      <args> x[22] x[42] </args>
      <args> x[22] x[43] </args>
      <args> x[22] x[44] </args>
      <args> x[22] x[58] </args>
      <args> x[22] x[59] </args>
      <args> x[22] x[60] </args>
      <args> x[22] x[61] </args>
      <args> x[22] x[62] </args>
      <args> x[22] x[63] </args>
      <args> x[22] x[64] </args>
      <args> x[22] x[65] </args>
      <args> x[22] x[66] </args>
      <args> x[22] x[67] </args>
      <args> x[22] x[68] </args>
      <args> x[22] x[81] </args>
      <args> x[22] x[82] </args>
      <args> x[22] x[83] </args>
      <args> x[22] x[84] </args>
      <args> x[22] x[85] </args>
      <args> x[22] x[86] </args>
      <args> x[22] x[87] </args>
      <args> x[22] x[88] </args>
      <args> x[22] x[89] </args>
      <args> x[22] x[90] </args>
      <args> x[22] x[91] </args>
      <args> x[23] x[46] </args>
      <args> x[23] x[48] </args>
      <args> x[23] x[50] </args>
      <args> x[23] x[53] </args>
      <args> x[23] x[55] </args>
      <args> x[23] x[59] </args>
      <args> x[23] x[61] </args>
      <args> x[23] x[64] </args>
      <args> x[23] x[66] </args>
      <args> x[23] x[93] </args>
      <args> x[24] x[46] </args>
      <args> x[24] x[47] </args>
      <args> x[24] x[49] </args>
      <args> x[24] x[52] </args>
      <args> x[24] x[54] </args>
      <args> x[24] x[58] </args>
      <args> x[24] x[60] </args>
      <args> x[24] x[63] </args>
      <args> x[24] x[65] </args>
      <args> x[24] x[93] </args>
      <args> x[25] x[46] </args>
      <args> x[25] x[48] </args>
      <args> x[25] x[51] </args>
      <args> x[25] x[53] </args>
      <args> x[25] x[56] </args>
      <args> x[25] x[59] </args>
      <args> x[25] x[62] </args>
      <args> x[25] x[64] </args>
      <args> x[25] x[67] </args>
      <args> x[25] x[93] </args>
      <args> x[26] x[46] </args>
      <args> x[26] x[47] </args>
      <args> x[26] x[51] </args>
      <args> x[26] x[52] </args>
      <args> x[26] x[56] </args>
      <args> x[26] x[58] </args>
      <args> x[26] x[62] </args>
      <args> x[26] x[63] </args>
      <args> x[26] x[67] </args>
      <args> x[26] x[93] </args>
      <args> x[27] x[46] </args>
      <args> x[27] x[49] </args>
      <args> x[27] x[50] </args>
      <args> x[27] x[54] </args>
      <args> x[27] x[55] </args>
      <args> x[27] x[60] </args>
      <args> x[27] x[61] </args>
      <args> x[27] x[65] </args>
      <args> x[27] x[66] </args>
      <args> x[27] x[93] </args>
      <args> x[28] x[46] </args>
      <args> x[28] x[48] </args>
      <args> x[28] x[50] </args>
      <args> x[28] x[57] </args>
      <args> x[28] x[59] </args>
      <args> x[28] x[61] </args>
      <args> x[28] x[68] </args>
      <args> x[28] x[93] </args>
      <args> x[29] x[46] </args>
      <args> x[29] x[47] </args>
      <args> x[29] x[49] </args>
      <args> x[29] x[57] </args>
      <args> x[29] x[58] </args>
      <args> x[29] x[60] </args>
      <args> x[29] x[68] </args>
      <args> x[29] x[93] </args>
      <args> x[30] x[46] </args>
      <args> x[30] x[48] </args>
      <args> x[30] x[51] </args>
      <args> x[30] x[57] </args>
      <args> x[30] x[59] </args>
      <args> x[30] x[62] </args>
      <args> x[30] x[68] </args>
      <args> x[30] x[93] </args>
      <args> x[31] x[46] </args>
      <args> x[31] x[47] </args>
      <args> x[31] x[51] </args>
      <args> x[31] x[57] </args>
      <args> x[31] x[58] </args>
      <args> x[31] x[62] </args>
      <args> x[31] x[68] </args>
      <args> x[31] x[93] </args>
      <args> x[32] x[46] </args>
      <args> x[32] x[49] </args>
      <args> x[32] x[50] </args>
      <args> x[32] x[57] </args>
      <args> x[32] x[60] </args>
      <args> x[32] x[61] </args>
      <args> x[32] x[68] </args>
      <args> x[32] x[93] </args>
      <args> x[33] x[46] </args>
      <args> x[33] x[52] </args>
      <args> x[33] x[53] </args>
      <args> x[33] x[54] </args>
      <args> x[33] x[55] </args>
      <args> x[33] x[56] </args>
      <args> x[33] x[63] </args>
      <args> x[33] x[64] </args>
      <args> x[33] x[65] </args>
      <args> x[33] x[66] </args>
      <args> x[33] x[67] </args>
      <args> x[33] x[93] </args>
      <args> x[34] x[46] </args>
      <args> x[34] x[48] </args>
      <args> x[34] x[50] </args>
      <args> x[34] x[53] </args>
      <args> x[34] x[55] </args>
      <args> x[34] x[69] </args>
      <args> x[34] x[93] </args>
      <args> x[35] x[46] </args>
      <args> x[35] x[47] </args>
      <args> x[35] x[49] </args>
      <args> x[35] x[52] </args>
      <args> x[35] x[54] </args>
      <args> x[35] x[69] </args>
      <args> x[35] x[93] </args>
      <args> x[36] x[46] </args>
      <args> x[36] x[48] </args>
      <args> x[36] x[51] </args>
      <args> x[36] x[53] </args>
      <args> x[36] x[56] </args>
      <args> x[36] x[69] </args>
      <args> x[36] x[93] </args>
      <args> x[37] x[46] </args>
      <args> x[37] x[47] </args>
      <args> x[37] x[51] </args>
      <args> x[37] x[52] </args>
      <args> x[37] x[56] </args>
      <args> x[37] x[69] </args>
      <args> x[37] x[93] </args>
      <args> x[38] x[46] </args>
      <args> x[38] x[49] </args>
      <args> x[38] x[50] </args>
      <args> x[38] x[54] </args>
      <args> x[38] x[55] </args>
      <args> x[38] x[69] </args>
      <args> x[38] x[93] </args>
      <args> x[39] x[46] </args>
      <args> x[39] x[48] </args>
      <args> x[39] x[50] </args>
      <args> x[39] x[57] </args>
      <args> x[39] x[69] </args>
      <args> x[39] x[93] </args>
      <args> x[40] x[46] </args>
      <args> x[40] x[47] </args>
      <args> x[40] x[49] </args>
      <args> x[40] x[57] </args>
      <args> x[40] x[69] </args>
      <args> x[40] x[93] </args>
      <args> x[41] x[46] </args>
      <args> x[41] x[48] </args>
      <args> x[41] x[51] </args>
      <args> x[41] x[57] </args>
      <args> x[41] x[69] </args>
      <args> x[41] x[93] </args>
      <args> x[42] x[46] </args>
      <args> x[42] x[47] </args>
      <args> x[42] x[51] </args>
      <args> x[42] x[57] </args>
      <args> x[42] x[69] </args>
      <args> x[42] x[93] </args>
      <args> x[43] x[46] </args>
      <args> x[43] x[49] </args>
      <args> x[43] x[50] </args>
      <args> x[43] x[57] </args>
      <args> x[43] x[69] </args>
      <args> x[43] x[93] </args>
      <args> x[44] x[46] </args>
      <args> x[44] x[52] </args>
      <args> x[44] x[53] </args>
      <args> x[44] x[54] </args>
      <args> x[44] x[55] </args>
      <args> x[44] x[56] </args>
      <args> x[44] x[69] </args>
      <args> x[44] x[93] </args>
      <args> x[45] x[46] </args>
      <args> x[45] x[58] </args>
      <args> x[45] x[59] </args>
      <args> x[45] x[60] </args>
      <args> x[45] x[61] </args>
      <args> x[45] x[62] </args>
      <args> x[45] x[63] </args>
      <args> x[45] x[64] </args>
      <args> x[45] x[65] </args>
      <args> x[45] x[66] </args>
      <args> x[45] x[67] </args>
      <args> x[45] x[68] </args>
      <args> x[45] x[93] </args>
      <args> x[46] x[70] </args>
      <args> x[46] x[71] </args>
      <args> x[46] x[72] </args>
      <args> x[46] x[73] </args>
      <args> x[46] x[74] </args>
      <args> x[46] x[75] </args>
      <args> x[46] x[76] </args>
      <args> x[46] x[77] </args>
      <args> x[46] x[78] </args>
      <args> x[46] x[79] </args>
      <args> x[46] x[80] </args>
      <args> x[46] x[81] </args>
      <args> x[46] x[82] </args>
      <args> x[46] x[83] </args>
      <args> x[46] x[84] </args>
      <args> x[46] x[85] </args>
      <args> x[46] x[86] </args>
      <args> x[46] x[87] </args>
      <args> x[46] x[88] </args>
      <args> x[46] x[89] </args>
      <args> x[46] x[90] </args>
      <args> x[46] x[91] </args>
      <args> x[46] x[92] </args>
      <args> x[47] x[94] </args>
      <args> x[48] x[94] </args>
      <args> x[49] x[94] </args>
      <args> x[50] x[94] </args>
      <args> x[51] x[94] </args>
      <args> x[52] x[94] </args>
      <args> x[53] x[94] </args>
      <args> x[54] x[94] </args>
      <args> x[55] x[94] </args>
      <args> x[56] x[94] </args>
      <args> x[57] x[94] </args>
      <args> x[58] x[94] </args>
      <args> x[59] x[94] </args>
      <args> x[60] x[94] </args>
      <args> x[61] x[94] </args>
      <args> x[62] x[94] </args>
      <args> x[63] x[94] </args>
      <args> x[64] x[94] </args>
      <args> x[65] x[94] </args>
      <args> x[66] x[94] </args>
      <args> x[67] x[94] </args>
      <args> x[68] x[94] </args>
      <args> x[69] x[94] </args>
      <args> x[70] x[94] </args>
      <args> x[71] x[94] </args>
      <args> x[72] x[94] </args>
      <args> x[73] x[94] </args>
      <args> x[74] x[94] </args>
      <args> x[75] x[94] </args>
      <args> x[76] x[94] </args>
      <args> x[77] x[94] </args>
      <args> x[78] x[94] </args>
      <args> x[79] x[94] </args>
      <args> x[80] x[94] </args>
      <args> x[81] x[94] </args>
      <args> x[82] x[94] </args>
      <args> x[83] x[94] </args>
      <args> x[84] x[94] </args>
      <args> x[85] x[94] </args>
      <args> x[86] x[94] </args>
      <args> x[87] x[94] </args>
      <args> x[88] x[94] </args>
      <args> x[89] x[94] </args>
      <args> x[90] x[94] </args>
      <args> x[91] x[94] </args>
      <args> x[92] x[94] </args>
      <args> x[93] x[94] </args>
    </group>
  </constraints>
  <objectives>
    <minimize type="maximum"> x[] </minimize>
  </objectives>
</instance>
